GLPSOL--GLPK LP/MIP Solver 5.0
Parameter(s) specified in the command line:
 --lp ../modeles/10_114.lp --log 10_114.log
Reading problem data from '../modeles/10_114.lp'...
1181 rows, 2300 columns, 8010 non-zeros
1140 integer variables, all of which are binary
3497 lines were read
GLPK Integer Optimizer 5.0
1181 rows, 2300 columns, 8010 non-zeros
1140 integer variables, all of which are binary
Preprocessing...
1140 constraint coefficient(s) were reduced
1181 rows, 2290 columns, 8000 non-zeros
1140 integer variables, all of which are binary
Scaling...
 A: min|aij| =  1.231e-03  max|aij| =  4.000e+00  ratio =  3.249e+03
GM: min|aij| =  1.325e-01  max|aij| =  7.550e+00  ratio =  5.700e+01
EQ: min|aij| =  1.754e-02  max|aij| =  1.000e+00  ratio =  5.700e+01
2N: min|aij| =  1.562e-02  max|aij| =  1.757e+00  ratio =  1.125e+02
Constructing initial basis...
Size of triangular part is 1181
Solving LP relaxation...
GLPK Simplex Optimizer 5.0
1181 rows, 2290 columns, 8000 non-zeros
      0: obj =   2.000000000e+01 inf =   4.950e+01 (21)
    149: obj =  -2.856922840e-02 inf =   0.000e+00 (0)
*   474: obj =  -3.162049861e+00 inf =   9.891e-15 (0)
OPTIMAL LP SOLUTION FOUND
Integer optimization begins...
Long-step dual simplex will be used
+   474: mip =     not found yet >=              -inf        (1; 0)
+   479: >>>>>  -3.162049861e+00 >=  -3.162049861e+00 < 0.1% (5; 0)
+   479: mip =  -3.162049861e+00 >=     tree is empty   0.0% (0; 9)
INTEGER OPTIMAL SOLUTION FOUND
Time used:   0.0 secs
Memory used: 3.5 Mb (3656738 bytes)
